Minimize
 obj: - 18 x_0_0 - 18 x_0_1 - 15 x_1_0 - 15 x_1_1 - 15 x_2_0 - 16 x_2_1 
 - 16 x_3_0 - 16 x_3_1 - 17 x_4_0 - 16 x_4_1 - 16 x_5_0 - 18 x_5_1 - 19 x_6_0 
 - 15 x_6_1 - 15 x_7_0 - 19 x_7_1 - 17 x_8_0 - 15 x_8_1 

Subject To 
 ohc_item_0: + 1 x_0_0 + 1 x_0_1 + 1 x_0_2  = 1.0
 ohc_item_1: + 1 x_1_0 + 1 x_1_1 + 1 x_1_2  = 1.0
 ohc_item_2: + 1 x_2_0 + 1 x_2_1 + 1 x_2_2  = 1.0
 ohc_item_3: + 1 x_3_0 + 1 x_3_1 + 1 x_3_2  = 1.0
 ohc_item_4: + 1 x_4_0 + 1 x_4_1 + 1 x_4_2  = 1.0
 ohc_item_5: + 1 x_5_0 + 1 x_5_1 + 1 x_5_2  = 1.0
 ohc_item_6: + 1 x_6_0 + 1 x_6_1 + 1 x_6_2  = 1.0
 ohc_item_7: + 1 x_7_0 + 1 x_7_1 + 1 x_7_2  = 1.0
 ohc_item_8: + 1 x_8_0 + 1 x_8_1 + 1 x_8_2  = 1.0
 knapsack_0: + 1 x_0_0 + 5 x_1_0 + 1 x_2_0 + 1 x_3_0 + 5 x_4_0 + 7 x_5_0 
 + 7 x_6_0 + 5 x_7_0 + 3 x_8_0  <= 8.0
 knapsack_1: + 1 x_0_1 + 5 x_1_1 + 1 x_2_1 + 1 x_3_1 + 5 x_4_1 + 7 x_5_1 
 + 7 x_6_1 + 5 x_7_1 + 3 x_8_1  <= 9.0

Bounds

Binary
 x_0_0 x_0_1 x_1_0 x_1_1 x_2_0 x_2_1 x_3_0 x_3_1 x_4_0 x_4_1 x_5_0 x_5_1 x_6_0
  x_6_1 x_7_0 x_7_1 x_8_0 x_8_1 x_0_2 x_1_2 x_2_2 x_3_2 x_4_2 x_5_2 x_6_2 x_7_2
  x_8_2
General

End